solution status: optimal solution found
objective value:                      200288.86243145
d11(0,0)                                            1 	(obj:0)
d11(1,1)                                            1 	(obj:0)
d11(1,2)                                            1 	(obj:0)
d11(2,3)                                            1 	(obj:0)
d11(2,5)                                            1 	(obj:0)
d11(2,6)                                            1 	(obj:0)
d11(3,7)                                            1 	(obj:0)
d11(3,9)                                            1 	(obj:0)
d11(3,11)                                           1 	(obj:0)
d11(3,13)                                           1 	(obj:0)
d11(4,15)                                           1 	(obj:0)
d11(4,17)                                           1 	(obj:0)
d11(4,19)                                           1 	(obj:0)
d11(4,21)                                           1 	(obj:0)
d11(4,23)                                           1 	(obj:0)
d11(4,25)                                           1 	(obj:0)
d11(4,27)                                           1 	(obj:0)
d11(5,39)                                           1 	(obj:0)
d11(5,47)                                           1 	(obj:0)
d11(5,55)                                           1 	(obj:0)
d11(5,61)                                           1 	(obj:0)
d12(3,8)                                            1 	(obj:0)
d12(3,10)                                           1 	(obj:0)
d12(3,12)                                           1 	(obj:0)
d12(3,14)                                           1 	(obj:0)
d12(4,16)                                           1 	(obj:0)
d12(4,18)                                           1 	(obj:0)
d12(4,20)                                           1 	(obj:0)
d12(4,22)                                           1 	(obj:0)
d12(4,24)                                           1 	(obj:0)
d12(4,26)                                           1 	(obj:0)
d12(4,28)                                           1 	(obj:0)
d12(4,30)                                           1 	(obj:0)
d12(5,32)                                           1 	(obj:0)
d12(5,34)                                           1 	(obj:0)
d12(5,36)                                           1 	(obj:0)
d12(5,38)                                           1 	(obj:0)
d12(5,40)                                           1 	(obj:0)
d12(5,42)                                           1 	(obj:0)
d12(5,44)                                           1 	(obj:0)
d12(5,46)                                           1 	(obj:0)
d12(5,48)                                           1 	(obj:0)
d12(5,50)                                           1 	(obj:0)
d12(5,52)                                           1 	(obj:0)
d12(5,54)                                           1 	(obj:0)
d12(5,56)                                           1 	(obj:0)
d12(5,58)                                           1 	(obj:0)
d12(5,60)                                           1 	(obj:0)
d12(5,62)                                           1 	(obj:0)
d21(3,7)                                            1 	(obj:0)
d21(3,8)                                            1 	(obj:0)
d21(3,9)                                            1 	(obj:0)
d21(3,11)                                           1 	(obj:0)
d21(4,15)                                           1 	(obj:0)
d21(4,16)                                           1 	(obj:0)
d21(4,17)                                           1 	(obj:0)
d21(4,19)                                           1 	(obj:0)
d21(4,23)                                           1 	(obj:0)
d21(5,31)                                           1 	(obj:0)
d21(5,32)                                           1 	(obj:0)
d21(5,33)                                           1 	(obj:0)
d21(5,34)                                           1 	(obj:0)
d21(5,35)                                           1 	(obj:0)
d21(5,36)                                           1 	(obj:0)
d21(5,37)                                           1 	(obj:0)
d21(5,39)                                           1 	(obj:0)
d21(5,40)                                           1 	(obj:0)
d21(5,41)                                           1 	(obj:0)
d21(5,43)                                           1 	(obj:0)
d21(5,47)                                           1 	(obj:0)
d21(5,48)                                           1 	(obj:0)
d21(5,49)                                           1 	(obj:0)
d21(5,51)                                           1 	(obj:0)
y2(5,40)                             1385.48851144895 	(obj:0)
y2(5,42)                             1385.48851144895 	(obj:0)
y2(5,44)                             1385.48851144895 	(obj:0)
y2(5,46)                             1385.48851144895 	(obj:0)
y2(5,48)                             1385.48851144895 	(obj:0)
y2(5,50)                             1385.48851144895 	(obj:0)
y2(5,52)                             1385.48851144895 	(obj:0)
y2(5,54)                             1385.48851144895 	(obj:0)
y2(5,56)                             1385.48851144895 	(obj:0)
y2(5,58)                             1385.48851144895 	(obj:0)
y2(5,60)                             1385.48851144895 	(obj:0)
y2(5,62)                             1385.48851144895 	(obj:0)
STE(1,1)                             3075.74989888879 	(obj:0)
STE(0,0)                                         7875 	(obj:0)
STE(1,2)                             4733.99979777761 	(obj:0)
STE(2,3)                                        787.5 	(obj:0)
STE(2,4)                             2445.74989888879 	(obj:0)
STE(2,5)                             2445.74989888882 	(obj:0)
STE(2,6)                             4103.99979777764 	(obj:0)
STE(3,7)                            -1268.99979812223 	(obj:0)
STE(3,8)                             204.274826751555 	(obj:0)
STE(3,9)                             389.250100766565 	(obj:0)
STE(3,10)                            1862.52472564034 	(obj:0)
STE(3,11)                            389.250100766598 	(obj:0)
STE(3,12)                            1862.52472564038 	(obj:0)
STE(3,13)                            2047.49999965541 	(obj:0)
STE(3,14)                            3520.77462452919 	(obj:0)
STE(4,15)                           -1898.99979812223 	(obj:0)
STE(4,16)                            -582.78571224572 	(obj:0)
STE(4,17)                           -425.725173248384 	(obj:0)
STE(4,18)                            890.488912628066 	(obj:0)
STE(4,19)                           -240.749899233435 	(obj:0)
STE(4,20)                            1075.46418664307 	(obj:0)
STE(4,21)                            1232.52472564034 	(obj:0)
STE(4,22)                            2548.73881151685 	(obj:0)
STE(4,23)                           -240.749899233402 	(obj:0)
STE(4,24)                             1075.4641866431 	(obj:0)
STE(4,25)                            1232.52472564038 	(obj:0)
STE(4,26)                            2548.73881151688 	(obj:0)
STE(4,27)                            1417.49999971274 	(obj:0)
STE(4,28)                            2733.71408553192 	(obj:0)
STE(4,29)                            2890.77462452919 	(obj:0)
STE(4,30)                             4206.9887104057 	(obj:0)
STE(5,31)                           -2528.99979812223 	(obj:0)
STE(5,32)                           -1212.78571224573 	(obj:0)
STE(5,33)                           -1212.78571224572 	(obj:0)
STE(5,34)                            103.428373630786 	(obj:0)
STE(5,35)                           -1055.72517324838 	(obj:0)
STE(5,36)                            260.488912628122 	(obj:0)
STE(5,37)                            260.488912628066 	(obj:0)
STE(5,38)                            1576.70299850457 	(obj:0)
STE(5,39)                           -870.749899233392 	(obj:0)
STE(5,40)                            445.464186643071 	(obj:0)
STE(5,41)                            445.464186643071 	(obj:0)
STE(5,42)                            1761.67827251958 	(obj:0)
STE(5,43)                            602.524725640343 	(obj:0)
STE(5,44)                            1918.73881151685 	(obj:0)
STE(5,45)                            1918.73881151685 	(obj:0)
STE(5,46)                            3234.95289739336 	(obj:0)
STE(5,47)                            -870.74989923336 	(obj:0)
STE(5,48)                            445.464186643103 	(obj:0)
STE(5,49)                            445.464186643104 	(obj:0)
STE(5,50)                            1761.67827251961 	(obj:0)
STE(5,51)                            602.524725640376 	(obj:0)
STE(5,52)                            1918.73881151688 	(obj:0)
STE(5,53)                            1918.73881151688 	(obj:0)
STE(5,54)                            3234.95289739339 	(obj:0)
STE(5,55)                                       787.5 	(obj:0)
STE(5,56)                            2103.71408558924 	(obj:0)
STE(5,57)                            2103.71408553192 	(obj:0)
STE(5,58)                            3419.92817140843 	(obj:0)
STE(5,59)                            2260.77462452919 	(obj:0)
STE(5,60)                             3576.9887104057 	(obj:0)
STE(5,61)                            3576.98871040574 	(obj:0)
STE(5,62)                            4893.20279628221 	(obj:0)
y1(5,55)                         -2.58535001194105e-007 	(obj:0)
AVE(1)                                   3216.9117036 	(obj:0)
WB(2)                                    3366.1541945 	(obj:0)
AVE(2)                                   3366.1541945 	(obj:0)
AVE(3)                                   3515.3966854 	(obj:0)
WB(4)                                841.984126682749 	(obj:0)
AVE(4)                               3515.39406545826 	(obj:0)
WB(5)                                 493.74392065776 	(obj:0)
AVE(5)                               3167.15385943327 	(obj:0)
WG(1)                                    3216.9117036 	(obj:10)
WG(3)                                    3515.3966854 	(obj:10)
WG(4)                                2673.40993877551 	(obj:10)
WG(5)                                2673.40993877551 	(obj:10)
BG(1)                                3285.40138925727 	(obj:10)
BG(2)                                4196.29249897959 	(obj:10)
BG(3)                                 468.06408838578 	(obj:10)
y1(1,1)                              3752.32509100009 	(obj:0)
y1(1,2)                              2259.90018200015 	(obj:0)
y1(2,3)                              1492.42490899991 	(obj:0)
y1(2,5)                              1492.42490899991 	(obj:0)
y1(3,7)                              1283.84981831001 	(obj:0)
y1(3,9)                                 1283.84981831 	(obj:0)
y1(3,11)                                1283.84981831 	(obj:0)
y1(3,13)                                1283.84981831 	(obj:0)
y1(4,27)                         -5.1591923693195e-008 	(obj:0)
y2(3,8)                              49.2366597384789 	(obj:0)
y2(3,10)                              49.236659738478 	(obj:0)
y2(3,12)                             49.2366597384789 	(obj:0)
y2(3,14)                             49.2366597384789 	(obj:0)
y2(4,16)                             1385.48851144896 	(obj:0)
y2(4,18)                             1385.48851144896 	(obj:0)
y2(4,20)                             1385.48851144895 	(obj:0)
y2(4,22)                             1385.48851144896 	(obj:0)
y2(4,24)                             1385.48851144895 	(obj:0)
y2(4,26)                             1385.48851144895 	(obj:0)
y2(4,28)                             1385.48851144895 	(obj:0)
y2(4,30)                             1385.48851144895 	(obj:0)
y2(5,32)                             1385.48851144895 	(obj:0)
y2(5,34)                             1385.48851144895 	(obj:0)
y2(5,36)                             1385.48851144895 	(obj:0)
y2(5,38)                             1385.48851144895 	(obj:0)
